# Solution for model r10_t9_m9_6
# Finished Task: 9 / 9
# Makespan: 329.0, Total Distance: 130.0, Total Time: 1.8456
# R O S F
0 0 13 0.0 0.0
1 1 -1 21.0 21.0
2 2 -1 0.0 0.0
3 3 15 10.0 10.0
4 4 -1 0.0 0.0
5 5 16 11.0 11.0
6 6 17 16.0 16.0
7 7 10 11.0 11.0
8 8 -1 0.0 0.0
9 9 -1 0.0 0.0
10 7 -1 291.0 329.0
11 6 -1 277.0 310.0
12 0 14 180.0 212.0
13 0 12 154.0 180.0
14 0 18 221.0 256.0
15 3 -1 180.0 207.0
16 5 -1 275.0 306.0
17 6 11 69.0 105.0
18 0 -1 306.0 329.0
